150
252
31
192
114
162
44
68
408
160
210
282
180
75
301
96
245
78
224
405
175
156
410
31
144
370
78
176
132
250
240
58
92
36
25
420
31
343
38
162
180
34
459
369
210
423
185
104
43
96
100
78
196
322
280
208
126
310
48
185
162
352
198
510
360
261
376
216
250
129
64
147
380
280
315
170
156
287
30
192
148
182
132
33
150
312
174
276
315
75
84
155
392
304
27
440
102
51
320
60
